
set month := 1 2 3 4 5 6;
set plan := 1 3 6;

param Cash_Flow:=
				 1	-50
				 2	12
				 3	-23
				 4	20
				 5	-41
				 6	13;
				 
param int := 	1	0.005
				3	0.021
				6	0.035;
				
				